&BANDS
 prefix = 'CsGeCl3_super',
 outdir = './tmp2/',
 filband = 'CsGeCl3.bands'
/

