&CONTROL
  calculation = 'nscf',
  prefix = 'CsGeCl3_super',
  outdir = './tmp2/',
  pseudo_dir = '.',
  verbosity = 'high'
/
&SYSTEM
  ibrav = 0,
  nat = 39,
  ntyp = 3,
  ecutwfc = 50.0,
  ecutrho = 400.0,
  occupations = 'smearing',
  smearing = 'mv',
  degauss = 0.01,
  nbnd = 220,
/
&ELECTRONS
  conv_thr = 1.0d-8,
  mixing_beta = 0.3,
/

ATOMIC_SPECIES
Cs 132.90545 Cs_pbe_v1.uspp.F.UPF
Ge 72.63000  Ge_pbe_v1.4.uspp.F.UPF
Cl 35.45300  cl_pbe_v1.4.uspp.F.UPF

CELL_PARAMETERS (angstrom)
10.67790 0.000000 0.000000
0.000000 10.67790 0.000000
0.000000 0.000000 10.67790

ATOMIC_POSITIONS (crystal)
Cs 0.0004175468 -0.0004175468 0.0000000000
Cs -0.0042793375 0.0042793375 0.5000000000
Cs 0.0004175468 0.5004175468 0.0000000000
Cs -0.0042793375 0.4957206625 0.5000000000
Cs 0.4995824532 -0.0004175468 0.0000000000
Cs 0.5042793375 0.0042793375 0.5000000000
Cs 0.4995824532 0.5004175468 0.0000000000
Cs 0.5042793375 0.4957206625 0.5000000000
Ge 0.2500000000 0.2500000000 0.2501024758
Ge 0.2500000000 0.2500000000 0.7498975242
Ge 0.2500000000 0.7500000000 0.2502382899
Ge 0.2500000000 0.7500000000 0.7497617101
Ge 0.7500000000 0.2500000000 0.2483748787
Ge 0.7500000000 0.2500000000 0.7516251213
Ge 0.7500000000 0.7500000000 0.2501024758
Ge 0.7500000000 0.7500000000 0.7498975242
Cl 0.2500000000 0.2500000000 0.0000000000
Cl 0.2500000000 0.2500000000 0.5000000000
Cl 0.2500000000 0.7500000000 0.0000000000
Cl 0.7500000000 0.2500000000 0.0000000000
Cl 0.7500000000 0.2500000000 0.5000000000
Cl 0.7500000000 0.7500000000 0.0000000000
Cl 0.7500000000 0.7500000000 0.5000000000
Cl 0.2500000000 -0.0001976806 0.2545202418
Cl 0.2500000000 -0.0001976806 0.7454797582
Cl 0.2500000000 0.5001976806 0.2545202418
Cl 0.2500000000 0.5001976806 0.7454797582
Cl 0.7500000000 0.0003522133 0.2494429053
Cl 0.7500000000 0.0003522133 0.7505570947
Cl 0.7500000000 0.4996477867 0.2494429053
Cl 0.7500000000 0.4996477867 0.7505570947
Cl -0.0003522133 0.2500000000 0.2494429053
Cl -0.0003522133 0.2500000000 0.7505570947
Cl 0.0001976806 0.7500000000 0.2545202418
Cl 0.0001976806 0.7500000000 0.7454797582
Cl 0.5003522133 0.2500000000 0.2494429053
Cl 0.5003522133 0.2500000000 0.7505570947
Cl 0.4998023194 0.7500000000 0.2545202418
Cl 0.4998023194 0.7500000000 0.7454797582

K_POINTS automatic
6 6 6 0 0 0

