&CONTROL
  calculation = 'bands',
  prefix      = 'CsGeCl3',
  outdir      = './tmp1/',
  pseudo_dir  = '/home/bashir/all-pseudos/pseudos/',
/
&SYSTEM
  ibrav     = 0,
  nat       = 5,
  ntyp      = 3,
  ecutwfc   = 60,
  ecutrho   = 480,
  occupations = 'fixed',
  nbnd      = 40,            ! increase if you need more conduction bands
/
&ELECTRONS
  conv_thr = 1.0d-8,
/
ATOMIC_SPECIES
  Cs 132.90545 Cs_pbe_v1.uspp.F.UPF
  Ge 72.63000  Ge_pbe_v1.4.uspp.F.UPF
  Cl 35.45300  cl_pbe_v1.4.uspp.F.UPF

CELL_PARAMETERS angstrom
  5.33895234248  0.00000000000  0.00000000000
  0.00000000000  5.33895234248  0.00000000000
  0.00000000000  0.00000000000  5.33895234248

ATOMIC_POSITIONS {crystal}
  Cs 0.0 0.0 0.0
  Ge 0.5 0.5 0.5
  Cl 0.5 0.5 0.0
  Cl 0.5 0.0 0.5
  Cl 0.0 0.5 0.5

K_POINTS crystal_b
8
 0.0000  0.0000  0.0000   40  ! Γ
 0.5000  0.0000  0.0000   40  ! X
 0.5000  0.5000  0.0000   40  ! M
 0.0000  0.0000  0.0000   40  ! Γ
 0.5000  0.5000  0.5000   40  ! R
 0.5000  0.0000  0.0000   40  ! X
 0.5000  0.5000  0.0000   40  ! M
 0.5000  0.5000  0.5000   40  ! R
