&BANDS
  prefix  = 'CsGeCl3',
  outdir  = './tmp1/',
  filband = 'CsGeCl3.bands.dat'
/
