&CONTROL
  calculation = 'relax',
  prefix = 'CsGeCl3_super',
  outdir = './tmp2/',
  pseudo_dir = '.',
  tprnfor = .true.,
  tstress = .true.,
  etot_conv_thr = 1.0d-4,
  forc_conv_thr = 1.0d-3,
/
&SYSTEM
  ibrav = 0,
  nat = 40,
  ntyp = 3,
  ecutwfc = 50.0,
  ecutrho = 400.0,
  occupations = 'smearing',
  smearing = 'cold',
  degauss = 0.01,
  london = .false.,
/
&ELECTRONS
  conv_thr = 1.0d-6,
  mixing_beta = 0.3,
/
&IONS
  ion_dynamics = 'bfgs',
/
CELL_PARAMETERS (angstrom)
  10.67790  0.000000 0.000000
  0.000000  10.67790 0.000000
  0.000000  0.000000 10.67790

ATOMIC_SPECIES
 Cs  132.90545  Cs_pbe_v1.uspp.F.UPF
 Ge   72.63000  Ge_pbe_v1.4.uspp.F.UPF
 Cl   35.45300  cl_pbe_v1.4.uspp.F.UPF

ATOMIC_POSITIONS {crystal}
Cs 0.000000 0.000000 0.000000
Cs 0.000000 0.000000 0.500000
Cs 0.000000 0.500000 0.000000
Cs 0.000000 0.500000 0.500000
Cs 0.500000 0.000000 0.000000
Cs 0.500000 0.000000 0.500000
Cs 0.500000 0.500000 0.000000
Cs 0.500000 0.500000 0.500000
Ge 0.250000 0.250000 0.250000
Ge 0.250000 0.250000 0.750000
Ge 0.250000 0.750000 0.250000
Ge 0.250000 0.750000 0.750000
Ge 0.750000 0.250000 0.250000
Ge 0.750000 0.250000 0.750000
Ge 0.750000 0.750000 0.250000
Ge 0.750000 0.750000 0.750000
Cl 0.250000 0.250000 0.000000
Cl 0.250000 0.250000 0.500000
Cl 0.250000 0.750000 0.000000
Cl 0.250000 0.750000 0.500000
Cl 0.750000 0.250000 0.000000
Cl 0.750000 0.250000 0.500000
Cl 0.750000 0.750000 0.000000
Cl 0.750000 0.750000 0.500000
Cl 0.250000 0.000000 0.250000
Cl 0.250000 0.000000 0.750000
Cl 0.250000 0.500000 0.250000
Cl 0.250000 0.500000 0.750000
Cl 0.750000 0.000000 0.250000
Cl 0.750000 0.000000 0.750000
Cl 0.750000 0.500000 0.250000
Cl 0.750000 0.500000 0.750000
Cl 0.000000 0.250000 0.250000
Cl 0.000000 0.250000 0.750000
Cl 0.000000 0.750000 0.250000
Cl 0.000000 0.750000 0.750000
Cl 0.500000 0.250000 0.250000
Cl 0.500000 0.250000 0.750000
Cl 0.500000 0.750000 0.250000
Cl 0.500000 0.750000 0.750000

K_POINTS automatic
 2 2 2  0 0 0

